nbProcess=3;
nbJobs =3;
nbMchs =4;
Process1=[3,3,3];
pidle=[1,2,3,1];
EnergyS=[10,30,60,10];
TB=[10,15,20,10];
x=
[
[
[1,0,0,],
[1,0,0,],
[1,0,0,],
],
[
[1,1,0,],
[0,1,0,],
[1,1,0,],
],
[
[0,0,1,],
[1,0,1,],
[0,1,1,],
],
[
[0,1,1,],
[0,1,1,],
[0,0,1,],
],
];
ptime =
[
[
[17,0,0],
[30,0,0],
[56,0,0]
],
[
[25,30,0],
[0,66,0],
[62,70,0]
],
[
[0,0,160],
[50,0,65],
[0,80,100]
],
[
[0,40,150],
[0,55,78],
[0,0,90]
]
];
power1=
[
[
[4.7,0,0,],
[3.3,0,0,],
[3.7,0,0,],
],
[
[3.2,3.5,0,],
[0,3.5,0,],
[3.1,4.8,0,],
],
[
[0,0,3.7,],
[4.8,0,3.2,],
[0,3.8,3.5,],
],
[
[0,3.2,3.3,],
[0,4.9,4.2,],
[0,0,3.7,],
]
];